c Reduced graph for zeroin.i.2_0 generated by Cyril Grelier
p edge 107 2318
e 1 2
e 1 3
e 1 4
e 1 5
e 1 7
e 1 8
e 1 10
e 1 11
e 1 12
e 1 13
e 1 14
e 1 15
e 1 16
e 1 17
e 1 18
e 1 19
e 1 20
e 1 22
e 1 23
e 1 24
e 1 25
e 1 26
e 1 27
e 1 28
e 1 29
e 1 30
e 1 32
e 1 33
e 1 36
e 1 37
e 1 38
e 1 39
e 1 40
e 1 41
e 1 42
e 1 43
e 1 47
e 1 48
e 1 49
e 1 50
e 1 52
e 1 53
e 1 54
e 1 55
e 1 56
e 1 57
e 1 58
e 1 59
e 1 60
e 1 61
e 1 62
e 1 63
e 1 64
e 1 65
e 1 67
e 1 69
e 1 70
e 1 71
e 1 72
e 1 73
e 1 74
e 1 75
e 1 76
e 1 77
e 1 78
e 1 80
e 1 81
e 1 82
e 1 84
e 1 85
e 1 86
e 1 88
e 1 89
e 1 90
e 1 91
e 1 92
e 1 93
e 1 94
e 1 95
e 1 96
e 1 97
e 1 98
e 1 99
e 1 100
e 1 101
e 1 102
e 1 103
e 1 104
e 1 105
e 1 106
e 2 3
e 2 6
e 2 7
e 2 8
e 2 15
e 2 16
e 2 19
e 2 20
e 2 26
e 2 33
e 2 42
e 2 43
e 2 47
e 2 49
e 2 50
e 2 54
e 2 55
e 2 57
e 2 59
e 2 60
e 2 61
e 2 62
e 2 63
e 2 66
e 2 67
e 2 73
e 2 74
e 2 82
e 2 86
e 2 91
e 2 95
e 2 96
e 2 101
e 2 102
e 2 106
e 3 6
e 3 7
e 3 8
e 3 15
e 3 19
e 3 20
e 3 33
e 3 42
e 3 43
e 3 49
e 3 50
e 3 54
e 3 55
e 3 59
e 3 60
e 3 61
e 3 62
e 3 63
e 3 66
e 3 67
e 3 82
e 3 86
e 3 91
e 3 95
e 3 96
e 3 101
e 3 102
e 3 106
e 4 6
e 4 8
e 4 9
e 4 21
e 4 31
e 4 33
e 4 34
e 4 35
e 4 42
e 4 44
e 4 45
e 4 46
e 4 49
e 4 51
e 4 54
e 4 55
e 4 59
e 4 60
e 4 66
e 4 67
e 4 68
e 4 79
e 4 82
e 4 83
e 4 87
e 4 106
e 4 107
e 5 6
e 5 7
e 5 8
e 5 15
e 5 16
e 5 17
e 5 19
e 5 20
e 5 29
e 5 33
e 5 42
e 5 43
e 5 49
e 5 50
e 5 54
e 5 55
e 5 59
e 5 60
e 5 61
e 5 62
e 5 63
e 5 66
e 5 67
e 5 82
e 5 95
e 5 106
e 6 9
e 6 10
e 6 11
e 6 12
e 6 13
e 6 14
e 6 15
e 6 16
e 6 17
e 6 18
e 6 20
e 6 21
e 6 22
e 6 23
e 6 24
e 6 25
e 6 26
e 6 27
e 6 28
e 6 29
e 6 30
e 6 31
e 6 32
e 6 34
e 6 35
e 6 36
e 6 37
e 6 38
e 6 39
e 6 40
e 6 41
e 6 43
e 6 44
e 6 45
e 6 46
e 6 47
e 6 48
e 6 51
e 6 52
e 6 53
e 6 56
e 6 57
e 6 58
e 6 61
e 6 63
e 6 64
e 6 65
e 6 66
e 6 68
e 6 69
e 6 70
e 6 71
e 6 72
e 6 73
e 6 74
e 6 75
e 6 76
e 6 77
e 6 78
e 6 79
e 6 80
e 6 81
e 6 83
e 6 84
e 6 85
e 6 86
e 6 87
e 6 88
e 6 89
e 6 90
e 6 91
e 6 92
e 6 93
e 6 94
e 6 95
e 6 96
e 6 97
e 6 98
e 6 99
e 6 100
e 6 101
e 6 102
e 6 103
e 6 104
e 6 105
e 6 107
e 7 8
e 7 10
e 7 11
e 7 12
e 7 13
e 7 14
e 7 15
e 7 16
e 7 17
e 7 18
e 7 19
e 7 20
e 7 22
e 7 23
e 7 24
e 7 25
e 7 26
e 7 27
e 7 28
e 7 29
e 7 30
e 7 32
e 7 33
e 7 36
e 7 37
e 7 38
e 7 39
e 7 40
e 7 41
e 7 42
e 7 43
e 7 47
e 7 48
e 7 49
e 7 50
e 7 52
e 7 53
e 7 54
e 7 55
e 7 56
e 7 57
e 7 58
e 7 59
e 7 60
e 7 61
e 7 62
e 7 63
e 7 64
e 7 65
e 7 67
e 7 69
e 7 71
e 7 73
e 7 74
e 7 75
e 7 76
e 7 77
e 7 81
e 7 82
e 7 84
e 7 85
e 7 86
e 7 88
e 7 91
e 7 92
e 7 93
e 7 94
e 7 95
e 7 96
e 7 97
e 7 98
e 7 99
e 7 100
e 7 101
e 7 102
e 7 103
e 7 104
e 7 105
e 7 106
e 8 10
e 8 11
e 8 12
e 8 13
e 8 14
e 8 15
e 8 16
e 8 17
e 8 18
e 8 19
e 8 20
e 8 22
e 8 23
e 8 24
e 8 25
e 8 26
e 8 27
e 8 28
e 8 29
e 8 30
e 8 32
e 8 33
e 8 36
e 8 37
e 8 38
e 8 40
e 8 41
e 8 42
e 8 43
e 8 47
e 8 48
e 8 49
e 8 50
e 8 52
e 8 53
e 8 54
e 8 55
e 8 57
e 8 58
e 8 59
e 8 60
e 8 61
e 8 62
e 8 63
e 8 64
e 8 65
e 8 67
e 8 69
e 8 70
e 8 71
e 8 72
e 8 73
e 8 74
e 8 75
e 8 76
e 8 77
e 8 78
e 8 81
e 8 82
e 8 86
e 8 88
e 8 89
e 8 91
e 8 93
e 8 94
e 8 95
e 8 96
e 8 97
e 8 99
e 8 100
e 8 101
e 8 102
e 8 103
e 8 105
e 8 106
e 9 21
e 9 31
e 9 32
e 9 34
e 9 35
e 9 36
e 9 39
e 9 44
e 9 45
e 9 46
e 9 51
e 9 56
e 9 66
e 9 68
e 9 70
e 9 72
e 9 77
e 9 78
e 9 79
e 9 80
e 9 83
e 9 84
e 9 85
e 9 87
e 9 89
e 9 90
e 9 92
e 9 98
e 9 104
e 9 107
e 10 15
e 10 19
e 10 20
e 10 27
e 10 33
e 10 37
e 10 42
e 10 43
e 10 49
e 10 50
e 10 54
e 10 55
e 10 59
e 10 60
e 10 61
e 10 62
e 10 63
e 10 66
e 10 67
e 10 82
e 10 95
e 10 96
e 10 101
e 10 103
e 10 106
e 11 14
e 11 15
e 11 19
e 11 20
e 11 25
e 11 33
e 11 42
e 11 43
e 11 49
e 11 50
e 11 54
e 11 55
e 11 59
e 11 60
e 11 61
e 11 62
e 11 63
e 11 66
e 11 67
e 11 82
e 11 95
e 11 96
e 11 101
e 11 106
e 12 18
e 12 19
e 12 30
e 12 33
e 12 34
e 12 36
e 12 42
e 12 49
e 12 50
e 12 54
e 12 55
e 12 59
e 12 60
e 12 61
e 12 62
e 12 66
e 12 67
e 12 69
e 12 77
e 12 82
e 12 88
e 12 97
e 12 99
e 12 106
e 13 15
e 13 16
e 13 17
e 13 19
e 13 20
e 13 33
e 13 42
e 13 43
e 13 49
e 13 50
e 13 54
e 13 55
e 13 59
e 13 60
e 13 61
e 13 62
e 13 63
e 13 66
e 13 67
e 13 82
e 13 95
e 13 96
e 13 101
e 13 106
e 14 15
e 14 19
e 14 20
e 14 25
e 14 33
e 14 42
e 14 43
e 14 49
e 14 50
e 14 54
e 14 55
e 14 59
e 14 60
e 14 61
e 14 62
e 14 63
e 14 66
e 14 67
e 14 82
e 14 95
e 14 96
e 14 101
e 14 106
e 15 16
e 15 17
e 15 19
e 15 20
e 15 22
e 15 23
e 15 24
e 15 25
e 15 26
e 15 27
e 15 28
e 15 29
e 15 33
e 15 37
e 15 38
e 15 40
e 15 41
e 15 42
e 15 43
e 15 44
e 15 45
e 15 46
e 15 47
e 15 49
e 15 50
e 15 52
e 15 54
e 15 55
e 15 57
e 15 58
e 15 59
e 15 60
e 15 61
e 15 62
e 15 63
e 15 64
e 15 65
e 15 66
e 15 67
e 15 71
e 15 73
e 15 74
e 15 75
e 15 76
e 15 81
e 15 82
e 15 83
e 15 86
e 15 91
e 15 93
e 15 94
e 15 95
e 15 96
e 15 100
e 15 101
e 15 102
e 15 103
e 15 105
e 15 106
e 15 107
e 16 17
e 16 19
e 16 20
e 16 23
e 16 24
e 16 29
e 16 33
e 16 38
e 16 42
e 16 43
e 16 44
e 16 45
e 16 46
e 16 48
e 16 49
e 16 50
e 16 52
e 16 53
e 16 54
e 16 55
e 16 58
e 16 59
e 16 60
e 16 61
e 16 62
e 16 63
e 16 65
e 16 66
e 16 67
e 16 75
e 16 76
e 16 81
e 16 82
e 16 83
e 16 86
e 16 91
e 16 95
e 16 96
e 16 100
e 16 101
e 16 105
e 16 106
e 16 107
e 17 19
e 17 20
e 17 23
e 17 24
e 17 29
e 17 33
e 17 38
e 17 42
e 17 43
e 17 44
e 17 45
e 17 46
e 17 48
e 17 49
e 17 50
e 17 52
e 17 53
e 17 54
e 17 55
e 17 58
e 17 59
e 17 60
e 17 61
e 17 62
e 17 63
e 17 65
e 17 66
e 17 67
e 17 75
e 17 76
e 17 81
e 17 82
e 17 83
e 17 95
e 17 96
e 17 100
e 17 101
e 17 105
e 17 106
e 17 107
e 18 19
e 18 30
e 18 33
e 18 34
e 18 35
e 18 36
e 18 42
e 18 49
e 18 50
e 18 54
e 18 55
e 18 59
e 18 60
e 18 61
e 18 62
e 18 66
e 18 67
e 18 69
e 18 77
e 18 82
e 18 88
e 18 97
e 18 99
e 18 106
e 19 20
e 19 22
e 19 23
e 19 24
e 19 25
e 19 26
e 19 27
e 19 28
e 19 29
e 19 30
e 19 32
e 19 33
e 19 36
e 19 37
e 19 38
e 19 40
e 19 41
e 19 42
e 19 43
e 19 47
e 19 48
e 19 49
e 19 50
e 19 52
e 19 53
e 19 54
e 19 55
e 19 57
e 19 58
e 19 59
e 19 60
e 19 61
e 19 62
e 19 63
e 19 64
e 19 65
e 19 67
e 19 69
e 19 71
e 19 73
e 19 74
e 19 75
e 19 76
e 19 77
e 19 81
e 19 82
e 19 86
e 19 88
e 19 91
e 19 93
e 19 94
e 19 95
e 19 96
e 19 97
e 19 99
e 19 100
e 19 101
e 19 102
e 19 103
e 19 105
e 19 106
e 20 22
e 20 23
e 20 24
e 20 25
e 20 26
e 20 27
e 20 28
e 20 29
e 20 33
e 20 37
e 20 38
e 20 40
e 20 41
e 20 42
e 20 43
e 20 47
e 20 48
e 20 49
e 20 50
e 20 52
e 20 53
e 20 54
e 20 55
e 20 57
e 20 58
e 20 59
e 20 60
e 20 61
e 20 62
e 20 63
e 20 64
e 20 65
e 20 66
e 20 67
e 20 71
e 20 73
e 20 74
e 20 75
e 20 76
e 20 81
e 20 82
e 20 86
e 20 91
e 20 93
e 20 94
e 20 95
e 20 96
e 20 100
e 20 101
e 20 102
e 20 103
e 20 105
e 20 106
e 21 31
e 21 32
e 21 34
e 21 35
e 21 36
e 21 39
e 21 44
e 21 45
e 21 46
e 21 51
e 21 56
e 21 66
e 21 68
e 21 69
e 21 70
e 21 72
e 21 77
e 21 78
e 21 79
e 21 80
e 21 83
e 21 84
e 21 85
e 21 87
e 21 88
e 21 89
e 21 90
e 21 92
e 21 97
e 21 98
e 21 104
e 21 107
e 22 25
e 22 33
e 22 41
e 22 42
e 22 43
e 22 49
e 22 50
e 22 54
e 22 55
e 22 59
e 22 60
e 22 61
e 22 62
e 22 63
e 22 66
e 22 67
e 22 82
e 22 94
e 22 95
e 22 96
e 22 101
e 22 102
e 22 106
e 23 33
e 23 38
e 23 42
e 23 43
e 23 49
e 23 50
e 23 54
e 23 55
e 23 58
e 23 59
e 23 60
e 23 61
e 23 62
e 23 63
e 23 66
e 23 67
e 23 75
e 23 82
e 23 95
e 23 106
e 24 33
e 24 42
e 24 43
e 24 49
e 24 50
e 24 54
e 24 55
e 24 59
e 24 60
e 24 61
e 24 62
e 24 63
e 24 65
e 24 66
e 24 67
e 24 82
e 24 95
e 24 106
e 25 26
e 25 33
e 25 40
e 25 41
e 25 42
e 25 43
e 25 49
e 25 50
e 25 54
e 25 55
e 25 59
e 25 60
e 25 61
e 25 62
e 25 63
e 25 66
e 25 67
e 25 71
e 25 82
e 25 91
e 25 94
e 25 95
e 25 96
e 25 101
e 25 102
e 25 103
e 25 106
e 26 33
e 26 40
e 26 42
e 26 43
e 26 47
e 26 49
e 26 50
e 26 54
e 26 55
e 26 59
e 26 60
e 26 61
e 26 62
e 26 63
e 26 66
e 26 67
e 26 71
e 26 82
e 26 91
e 26 95
e 26 96
e 26 101
e 26 102
e 26 106
e 27 28
e 27 33
e 27 37
e 27 42
e 27 43
e 27 49
e 27 50
e 27 54
e 27 55
e 27 59
e 27 60
e 27 61
e 27 62
e 27 63
e 27 64
e 27 66
e 27 67
e 27 82
e 27 93
e 27 95
e 27 96
e 27 101
e 27 103
e 27 106
e 28 33
e 28 37
e 28 42
e 28 43
e 28 49
e 28 50
e 28 54
e 28 55
e 28 59
e 28 60
e 28 61
e 28 62
e 28 63
e 28 66
e 28 67
e 28 82
e 28 95
e 28 96
e 28 101
e 28 103
e 28 106
e 29 33
e 29 42
e 29 43
e 29 49
e 29 50
e 29 54
e 29 55
e 29 59
e 29 60
e 29 61
e 29 62
e 29 63
e 29 66
e 29 67
e 29 82
e 29 95
e 29 106
e 30 33
e 30 36
e 30 42
e 30 49
e 30 50
e 30 54
e 30 55
e 30 59
e 30 60
e 30 61
e 30 62
e 30 66
e 30 67
e 30 69
e 30 77
e 30 82
e 30 88
e 30 97
e 30 99
e 30 106
e 31 32
e 31 34
e 31 35
e 31 36
e 31 39
e 31 44
e 31 45
e 31 46
e 31 51
e 31 56
e 31 66
e 31 68
e 31 70
e 31 72
e 31 77
e 31 78
e 31 79
e 31 80
e 31 83
e 31 84
e 31 85
e 31 87
e 31 88
e 31 89
e 31 90
e 31 92
e 31 98
e 31 104
e 31 107
e 32 33
e 32 34
e 32 35
e 32 42
e 32 49
e 32 50
e 32 51
e 32 54
e 32 55
e 32 59
e 32 60
e 32 62
e 32 67
e 32 68
e 32 82
e 32 87
e 32 106
e 33 36
e 33 37
e 33 38
e 33 39
e 33 40
e 33 41
e 33 42
e 33 43
e 33 47
e 33 48
e 33 49
e 33 50
e 33 52
e 33 53
e 33 54
e 33 55
e 33 56
e 33 57
e 33 58
e 33 59
e 33 60
e 33 61
e 33 62
e 33 63
e 33 64
e 33 65
e 33 67
e 33 69
e 33 70
e 33 71
e 33 73
e 33 74
e 33 75
e 33 76
e 33 77
e 33 81
e 33 82
e 33 84
e 33 85
e 33 86
e 33 88
e 33 91
e 33 92
e 33 93
e 33 94
e 33 95
e 33 96
e 33 97
e 33 98
e 33 99
e 33 100
e 33 101
e 33 102
e 33 103
e 33 104
e 33 105
e 33 106
e 34 35
e 34 36
e 34 39
e 34 44
e 34 45
e 34 46
e 34 51
e 34 56
e 34 66
e 34 68
e 34 69
e 34 70
e 34 72
e 34 77
e 34 78
e 34 79
e 34 80
e 34 83
e 34 84
e 34 85
e 34 87
e 34 88
e 34 89
e 34 90
e 34 92
e 34 97
e 34 98
e 34 99
e 34 104
e 34 107
e 35 36
e 35 39
e 35 44
e 35 45
e 35 46
e 35 51
e 35 56
e 35 66
e 35 68
e 35 69
e 35 70
e 35 72
e 35 77
e 35 78
e 35 79
e 35 80
e 35 83
e 35 84
e 35 85
e 35 87
e 35 88
e 35 89
e 35 90
e 35 92
e 35 97
e 35 98
e 35 99
e 35 104
e 35 107
e 36 42
e 36 49
e 36 50
e 36 54
e 36 55
e 36 59
e 36 60
e 36 61
e 36 62
e 36 66
e 36 67
e 36 68
e 36 69
e 36 77
e 36 82
e 36 87
e 36 88
e 36 97
e 36 99
e 36 106
e 37 42
e 37 43
e 37 49
e 37 50
e 37 54
e 37 55
e 37 59
e 37 60
e 37 61
e 37 62
e 37 63
e 37 64
e 37 66
e 37 67
e 37 82
e 37 93
e 37 95
e 37 96
e 37 101
e 37 103
e 37 106
e 38 42
e 38 43
e 38 49
e 38 50
e 38 54
e 38 55
e 38 58
e 38 59
e 38 60
e 38 61
e 38 62
e 38 63
e 38 66
e 38 67
e 38 75
e 38 82
e 38 95
e 38 101
e 38 105
e 38 106
e 39 42
e 39 44
e 39 45
e 39 46
e 39 49
e 39 51
e 39 54
e 39 56
e 39 59
e 39 66
e 39 67
e 39 68
e 39 79
e 39 83
e 39 84
e 39 85
e 39 87
e 39 92
e 39 98
e 39 104
e 39 106
e 39 107
e 40 42
e 40 43
e 40 49
e 40 50
e 40 54
e 40 55
e 40 59
e 40 60
e 40 61
e 40 62
e 40 63
e 40 66
e 40 67
e 40 82
e 40 95
e 40 96
e 40 101
e 40 102
e 40 106
e 41 42
e 41 43
e 41 49
e 41 50
e 41 54
e 41 55
e 41 59
e 41 60
e 41 61
e 41 62
e 41 63
e 41 66
e 41 67
e 41 82
e 41 95
e 41 96
e 41 101
e 41 106
e 42 43
e 42 47
e 42 48
e 42 49
e 42 50
e 42 52
e 42 53
e 42 54
e 42 55
e 42 56
e 42 57
e 42 58
e 42 59
e 42 60
e 42 61
e 42 62
e 42 63
e 42 64
e 42 65
e 42 67
e 42 69
e 42 70
e 42 71
e 42 73
e 42 74
e 42 75
e 42 76
e 42 77
e 42 81
e 42 82
e 42 84
e 42 85
e 42 86
e 42 88
e 42 91
e 42 92
e 42 93
e 42 94
e 42 95
e 42 96
e 42 97
e 42 98
e 42 99
e 42 100
e 42 101
e 42 102
e 42 103
e 42 104
e 42 105
e 42 106
e 43 44
e 43 45
e 43 46
e 43 47
e 43 49
e 43 50
e 43 52
e 43 54
e 43 55
e 43 57
e 43 58
e 43 59
e 43 60
e 43 61
e 43 62
e 43 63
e 43 64
e 43 65
e 43 66
e 43 67
e 43 71
e 43 73
e 43 74
e 43 75
e 43 76
e 43 81
e 43 82
e 43 83
e 43 86
e 43 91
e 43 93
e 43 94
e 43 95
e 43 96
e 43 100
e 43 101
e 43 102
e 43 103
e 43 105
e 43 106
e 43 107
e 44 45
e 44 46
e 44 48
e 44 51
e 44 56
e 44 61
e 44 63
e 44 66
e 44 68
e 44 70
e 44 72
e 44 78
e 44 79
e 44 80
e 44 83
e 44 84
e 44 85
e 44 87
e 44 89
e 44 90
e 44 92
e 44 95
e 44 98
e 44 104
e 44 107
e 45 46
e 45 48
e 45 51
e 45 56
e 45 61
e 45 63
e 45 66
e 45 68
e 45 70
e 45 72
e 45 78
e 45 79
e 45 80
e 45 83
e 45 84
e 45 85
e 45 87
e 45 89
e 45 90
e 45 92
e 45 95
e 45 98
e 45 104
e 45 107
e 46 48
e 46 51
e 46 56
e 46 61
e 46 63
e 46 66
e 46 68
e 46 70
e 46 72
e 46 78
e 46 79
e 46 80
e 46 83
e 46 84
e 46 85
e 46 87
e 46 89
e 46 90
e 46 92
e 46 95
e 46 98
e 46 104
e 46 107
e 47 49
e 47 50
e 47 54
e 47 55
e 47 57
e 47 59
e 47 60
e 47 61
e 47 62
e 47 63
e 47 66
e 47 67
e 47 82
e 47 86
e 47 91
e 47 95
e 47 96
e 47 101
e 47 102
e 47 106
e 48 49
e 48 50
e 48 53
e 48 54
e 48 55
e 48 59
e 48 60
e 48 61
e 48 62
e 48 66
e 48 67
e 48 82
e 48 83
e 48 106
e 48 107
e 49 50
e 49 52
e 49 53
e 49 54
e 49 55
e 49 56
e 49 57
e 49 58
e 49 59
e 49 60
e 49 61
e 49 62
e 49 63
e 49 64
e 49 65
e 49 67
e 49 69
e 49 70
e 49 71
e 49 72
e 49 73
e 49 74
e 49 75
e 49 76
e 49 77
e 49 78
e 49 80
e 49 81
e 49 82
e 49 84
e 49 85
e 49 86
e 49 88
e 49 89
e 49 90
e 49 91
e 49 92
e 49 93
e 49 94
e 49 95
e 49 96
e 49 97
e 49 98
e 49 99
e 49 100
e 49 101
e 49 102
e 49 103
e 49 104
e 49 105
e 49 106
e 50 52
e 50 53
e 50 54
e 50 55
e 50 57
e 50 58
e 50 59
e 50 60
e 50 61
e 50 62
e 50 63
e 50 64
e 50 65
e 50 67
e 50 69
e 50 70
e 50 71
e 50 73
e 50 74
e 50 75
e 50 76
e 50 77
e 50 81
e 50 82
e 50 86
e 50 88
e 50 89
e 50 91
e 50 93
e 50 94
e 50 95
e 50 96
e 50 97
e 50 99
e 50 100
e 50 101
e 50 102
e 50 103
e 50 105
e 50 106
e 51 56
e 51 66
e 51 68
e 51 70
e 51 72
e 51 77
e 51 78
e 51 79
e 51 80
e 51 83
e 51 84
e 51 85
e 51 87
e 51 89
e 51 90
e 51 92
e 51 98
e 51 104
e 51 107
e 52 54
e 52 55
e 52 59
e 52 60
e 52 61
e 52 62
e 52 63
e 52 66
e 52 67
e 52 82
e 52 95
e 52 96
e 52 100
e 52 101
e 52 106
e 53 54
e 53 55
e 53 59
e 53 60
e 53 61
e 53 62
e 53 66
e 53 67
e 53 82
e 53 106
e 54 55
e 54 56
e 54 57
e 54 58
e 54 59
e 54 60
e 54 61
e 54 62
e 54 63
e 54 64
e 54 65
e 54 67
e 54 69
e 54 70
e 54 71
e 54 73
e 54 74
e 54 75
e 54 76
e 54 77
e 54 81
e 54 82
e 54 84
e 54 85
e 54 86
e 54 88
e 54 91
e 54 92
e 54 93
e 54 94
e 54 95
e 54 96
e 54 97
e 54 98
e 54 99
e 54 100
e 54 101
e 54 102
e 54 103
e 54 104
e 54 105
e 54 106
e 55 57
e 55 58
e 55 59
e 55 60
e 55 61
e 55 62
e 55 63
e 55 64
e 55 65
e 55 67
e 55 69
e 55 70
e 55 71
e 55 72
e 55 73
e 55 74
e 55 75
e 55 76
e 55 77
e 55 78
e 55 80
e 55 81
e 55 82
e 55 84
e 55 86
e 55 88
e 55 89
e 55 90
e 55 91
e 55 93
e 55 94
e 55 95
e 55 96
e 55 97
e 55 99
e 55 100
e 55 101
e 55 102
e 55 103
e 55 105
e 55 106
e 56 59
e 56 66
e 56 67
e 56 68
e 56 79
e 56 83
e 56 84
e 56 85
e 56 87
e 56 92
e 56 98
e 56 104
e 56 106
e 56 107
e 57 59
e 57 60
e 57 61
e 57 62
e 57 63
e 57 66
e 57 67
e 57 82
e 57 86
e 57 91
e 57 95
e 57 96
e 57 101
e 57 102
e 57 106
e 58 59
e 58 60
e 58 61
e 58 62
e 58 63
e 58 66
e 58 67
e 58 75
e 58 82
e 58 95
e 58 106
e 59 60
e 59 61
e 59 62
e 59 63
e 59 64
e 59 65
e 59 67
e 59 69
e 59 70
e 59 71
e 59 73
e 59 74
e 59 75
e 59 76
e 59 77
e 59 81
e 59 82
e 59 84
e 59 85
e 59 86
e 59 88
e 59 91
e 59 92
e 59 93
e 59 94
e 59 95
e 59 96
e 59 97
e 59 98
e 59 99
e 59 100
e 59 101
e 59 102
e 59 103
e 59 104
e 59 105
e 59 106
e 60 61
e 60 62
e 60 63
e 60 64
e 60 65
e 60 67
e 60 69
e 60 70
e 60 71
e 60 72
e 60 73
e 60 74
e 60 75
e 60 76
e 60 77
e 60 78
e 60 80
e 60 81
e 60 82
e 60 86
e 60 88
e 60 89
e 60 90
e 60 91
e 60 93
e 60 94
e 60 95
e 60 96
e 60 97
e 60 99
e 60 100
e 60 101
e 60 102
e 60 103
e 60 105
e 60 106
e 61 62
e 61 63
e 61 64
e 61 65
e 61 66
e 61 67
e 61 69
e 61 71
e 61 73
e 61 74
e 61 75
e 61 76
e 61 77
e 61 81
e 61 82
e 61 83
e 61 86
e 61 88
e 61 91
e 61 93
e 61 94
e 61 95
e 61 96
e 61 97
e 61 99
e 61 100
e 61 101
e 61 102
e 61 103
e 61 105
e 61 106
e 61 107
e 62 63
e 62 64
e 62 65
e 62 67
e 62 69
e 62 70
e 62 71
e 62 72
e 62 73
e 62 74
e 62 75
e 62 76
e 62 77
e 62 81
e 62 82
e 62 86
e 62 88
e 62 89
e 62 91
e 62 93
e 62 94
e 62 95
e 62 96
e 62 97
e 62 99
e 62 100
e 62 101
e 62 102
e 62 103
e 62 105
e 62 106
e 63 64
e 63 65
e 63 66
e 63 67
e 63 71
e 63 73
e 63 74
e 63 75
e 63 76
e 63 81
e 63 82
e 63 83
e 63 86
e 63 91
e 63 93
e 63 94
e 63 95
e 63 96
e 63 100
e 63 101
e 63 102
e 63 103
e 63 105
e 63 106
e 63 107
e 64 66
e 64 67
e 64 82
e 64 93
e 64 95
e 64 96
e 64 101
e 64 103
e 64 106
e 65 66
e 65 67
e 65 82
e 65 95
e 65 106
e 66 68
e 66 69
e 66 70
e 66 71
e 66 72
e 66 73
e 66 74
e 66 75
e 66 76
e 66 77
e 66 78
e 66 79
e 66 80
e 66 81
e 66 83
e 66 84
e 66 85
e 66 86
e 66 87
e 66 88
e 66 89
e 66 90
e 66 91
e 66 92
e 66 93
e 66 94
e 66 95
e 66 96
e 66 97
e 66 98
e 66 99
e 66 100
e 66 101
e 66 102
e 66 103
e 66 104
e 66 105
e 66 107
e 67 69
e 67 70
e 67 71
e 67 73
e 67 74
e 67 75
e 67 76
e 67 77
e 67 81
e 67 82
e 67 84
e 67 85
e 67 86
e 67 88
e 67 91
e 67 92
e 67 93
e 67 94
e 67 95
e 67 96
e 67 97
e 67 98
e 67 99
e 67 100
e 67 101
e 67 102
e 67 103
e 67 104
e 67 105
e 67 106
e 68 69
e 68 70
e 68 72
e 68 77
e 68 78
e 68 79
e 68 80
e 68 83
e 68 84
e 68 85
e 68 87
e 68 88
e 68 89
e 68 90
e 68 92
e 68 97
e 68 98
e 68 99
e 68 104
e 68 107
e 69 77
e 69 82
e 69 88
e 69 97
e 69 99
e 69 106
e 70 79
e 70 82
e 70 83
e 70 87
e 70 106
e 70 107
e 71 82
e 71 91
e 71 95
e 71 96
e 71 101
e 71 102
e 71 106
e 72 78
e 72 79
e 72 80
e 72 82
e 72 83
e 72 84
e 72 85
e 72 87
e 72 89
e 72 90
e 72 92
e 72 106
e 72 107
e 73 74
e 73 82
e 73 86
e 73 91
e 73 95
e 73 96
e 73 101
e 73 102
e 73 106
e 74 82
e 74 86
e 74 91
e 74 95
e 74 96
e 74 101
e 74 102
e 74 106
e 75 82
e 75 95
e 75 106
e 76 81
e 76 82
e 76 95
e 76 106
e 77 82
e 77 87
e 77 88
e 77 97
e 77 99
e 77 106
e 78 79
e 78 80
e 78 82
e 78 83
e 78 84
e 78 85
e 78 87
e 78 89
e 78 90
e 78 92
e 78 106
e 78 107
e 79 80
e 79 83
e 79 84
e 79 85
e 79 87
e 79 89
e 79 90
e 79 92
e 79 98
e 79 104
e 79 107
e 80 83
e 80 84
e 80 85
e 80 87
e 80 89
e 80 90
e 80 92
e 80 106
e 80 107
e 81 82
e 81 95
e 81 106
e 82 86
e 82 88
e 82 89
e 82 90
e 82 91
e 82 93
e 82 94
e 82 95
e 82 96
e 82 97
e 82 99
e 82 100
e 82 101
e 82 102
e 82 103
e 82 105
e 82 106
e 83 84
e 83 85
e 83 87
e 83 89
e 83 90
e 83 92
e 83 95
e 83 98
e 83 104
e 83 107
e 84 85
e 84 87
e 84 89
e 84 90
e 84 92
e 84 98
e 84 104
e 84 106
e 84 107
e 85 87
e 85 89
e 85 90
e 85 92
e 85 98
e 85 104
e 85 106
e 85 107
e 86 91
e 86 95
e 86 96
e 86 101
e 86 102
e 86 106
e 87 88
e 87 89
e 87 90
e 87 92
e 87 97
e 87 98
e 87 104
e 87 107
e 88 97
e 88 99
e 88 106
e 89 90
e 89 92
e 89 106
e 89 107
e 90 92
e 90 106
e 90 107
e 91 95
e 91 96
e 91 101
e 91 102
e 91 106
e 92 98
e 92 104
e 92 106
e 92 107
e 93 95
e 93 96
e 93 101
e 93 103
e 93 106
e 94 95
e 94 96
e 94 101
e 94 102
e 94 106
e 95 96
e 95 100
e 95 101
e 95 102
e 95 103
e 95 105
e 95 106
e 95 107
e 96 100
e 96 101
e 96 102
e 96 103
e 96 106
e 97 99
e 97 106
e 98 104
e 98 106
e 98 107
e 99 106
e 100 101
e 100 106
e 101 102
e 101 103
e 101 105
e 101 106
e 102 106
e 103 106
e 104 106
e 104 107
e 105 106
